Set parameter Username
Academic license - for non-commercial use only - expires 2024-10-29
Set parameter LazyConstraints to value 1
Set parameter TimeLimit to value 600
Gurobi Optimizer version 10.0.0 build v10.0.0rc2 (linux64)

CPU model: AMD FX(tm)-4300 Quad-Core Processor, instruction set [SSE2|AVX]
Thread count: 2 physical cores, 4 logical processors, using up to 4 threads

Optimize a model with 638 rows, 150 columns and 747 nonzeros
Model fingerprint: 0x326225c0
Variable types: 0 continuous, 150 integer (150 binary)
Coefficient statistics:
  Matrix range     [1e+00, 1e+00]
  Objective range  [1e+00, 1e+01]
  Bounds range     [1e+00, 1e+00]
  RHS range        [1e+00, 1e+00]
Presolve removed 604 rows and 3 columns
Presolve time: 0.00s
Presolved: 34 rows, 147 columns, 141 nonzeros
Variable types: 0 continuous, 147 integer (147 binary)

Root relaxation: objective 8.800000e+01, 32 iterations, 0.00 seconds (0.00 work units)

    Nodes    |    Current Node    |     Objective Bounds      |     Work
 Expl Unexpl |  Obj  Depth IntInf | Incumbent    BestBd   Gap | It/Node Time

     0     0   88.00000    0    -          -   88.00000      -     -    0s
     0     0   88.00000    0    -          -   88.00000      -     -    0s
     0     0   89.00000    0    -          -   89.00000      -     -    0s
     0     0   90.00000    0    -          -   90.00000      -     -    0s
     0     0   90.50000    0    4          -   90.50000      -     -    0s
     0     0  135.00000    0    -          -  135.00000      -     -    0s
     0     0  135.00000    0    -          -  135.00000      -     -    0s
     0     0  136.00000    0    -          -  136.00000      -     -    0s
H    0     0                     285.0000000  136.50000  52.1%     -    0s
     0     0  136.50000    0    3  285.00000  136.50000  52.1%     -    0s
     0     0  150.00000    0    -  285.00000  150.00000  47.4%     -    0s
     0     0  150.00000    0    -  285.00000  150.00000  47.4%     -    0s
     0     0  150.00000    0    -  285.00000  150.00000  47.4%     -    0s
     0     0  150.00000    0    -  285.00000  150.00000  47.4%     -    0s
     0     0  150.00000    0    -  285.00000  150.00000  47.4%     -    0s
H    0     0                     224.0000000  150.50000  32.8%     -    0s
     0     0  150.50000    0    7  224.00000  150.50000  32.8%     -    0s
     0     0  152.00000    0    -  224.00000  152.00000  32.1%     -    0s
     0     0  152.00000    0    -  224.00000  152.00000  32.1%     -    0s
     0     0  152.00000    0    -  224.00000  152.00000  32.1%     -    0s
H    0     0                     201.0000000  152.00000  24.4%     -    0s
     0     0  152.00000    0    6  201.00000  152.00000  24.4%     -    0s
     0     0  154.00000    0    -  201.00000  154.00000  23.4%     -    1s
H    0     0                     200.0000000  154.00000  23.0%     -    1s
     0     0  154.00000    0    4  200.00000  154.00000  23.0%     -    1s
     0     0  154.00000    0    -  200.00000  154.00000  23.0%     -    1s
     0     0  154.00000    0    -  200.00000  154.00000  23.0%     -    1s
     0     0  154.00000    0    -  200.00000  154.00000  23.0%     -    1s
     0     0  154.00000    0    -  200.00000  154.00000  23.0%     -    1s
     0     0  154.00000    0    -  200.00000  154.00000  23.0%     -    1s
     0     0  154.05882    0   12  200.00000  154.05882  23.0%     -    1s
H    0     0                     193.0000000  157.00000  18.7%     -    1s
     0     0  157.00000    0    6  193.00000  157.00000  18.7%     -    1s
H    0     2                     185.0000000  157.00000  15.1%     -    2s
     0     2  158.00000    0    4  185.00000  158.00000  14.6%     -    2s
H   18    19                     182.0000000  159.92857  12.1%  36.1    2s
   115   122  178.00000   36    -  182.00000  160.03636  12.1%  13.3    5s
H  161   142                     176.0000000  160.03636  9.07%  11.4    6s
H  253   199                     175.0000000  160.33333  8.38%   9.9    8s
   316   291  168.00000   27   11  175.00000  160.33333  8.38%   9.2   10s
   522   456  170.00000   37    -  175.00000  163.50253  6.57%   8.1   15s
   739   570  170.00000   33    6  175.00000  163.66667  6.48%   7.8   20s
   817   623  171.47308   19   42  175.00000  171.47308  2.02%   8.6   25s
   893   665  172.81597   51   34  175.00000  171.93692  1.75%  10.7   30s
H  940   667                     174.0000000  172.01148  1.14%  11.6   31s

Cutting planes:
  User: 160
  Gomory: 14
  Flow cover: 6
  Zero half: 7
  Lazy constraints: 52

Explored 1084 nodes (13581 simplex iterations) in 33.80 seconds (1.56 work units)
Thread count was 4 (of 4 available processors)

Solution count 10: 174 175 176 ... 285

Optimal solution found (tolerance 1.00e-04)
Best objective 1.740000000000e+02, best bound 1.740000000000e+02, gap 0.0000%

User-callback calls 4434, time in user-callback 31.12 sec
